&CONTROL
  calculation = 'vc-md'
  outdir = '//scratch/21mt61r55/mlip/bomd_500K/out/'
  prefix = 'aiida'
  pseudo_dir = '//scratch/21mt61r55/mlip/'
  tprnfor = .true.
  tstress = .true.
  verbosity = 'high'
  dt = 40
  nstep = 7500
  restart_mode = 'restart'
/
&SYSTEM
  degauss =   2.0000000000d-02
  ecutrho =   2.4000000000d+02
  ecutwfc =   3.0000000000d+01
  ibrav = 0
  nat = 27
  nosym = .true.
  ntyp = 1
  occupations = 'smearing'
  smearing = 'cold'
/
&ELECTRONS
  electron_maxstep = 120
  mixing_beta =   1.5000000000d-01
  !diagonalization = 'cg'
/
&IONS
  ion_dynamics   = 'beeman',       
  ion_temperature = 'rescaling',    
  tempw          = 500,           
  tolp           = 10.0,           
  nraise         = 10,              
/
&CELL
  cell_dynamics='pr'
/
ATOMIC_SPECIES
W      183.84 w_pbesol_v1.2.uspp.F.UPF
ATOMIC_POSITIONS crystal
W  0.00000000  0.00000000  0.00000000
W  0.00000000  0.00000000  0.33333333
W  0.00000000  0.00000000  0.66666667
W  0.00000000  0.33333333  0.00000000
W  0.00000000  0.33333333  0.33333333
W  0.00000000  0.33333333  0.66666667
W  0.00000000  0.66666667  0.00000000
W  0.00000000  0.66666667  0.33333333
W  0.00000000  0.66666667  0.66666667
W  0.33333333  0.00000000  0.00000000
W  0.33333333  0.00000000  0.33333333
W  0.33333333  0.00000000  0.66666667
W  0.33333333  0.33333333  0.00000000
W  0.33333333  0.33333333  0.33333333
W  0.33333333  0.33333333  0.66666667
W  0.33333333  0.66666667  0.00000000
W  0.33333333  0.66666667  0.33333333
W  0.33333333  0.66666667  0.66666667
W  0.66666667  0.00000000  0.00000000
W  0.66666667  0.00000000  0.33333333
W  0.66666667  0.00000000  0.66666667
W  0.66666667  0.33333333  0.00000000
W  0.66666667  0.33333333  0.33333333
W  0.66666667  0.33333333  0.66666667
W  0.66666667  0.66666667  0.00000000
W  0.66666667  0.66666667  0.33333333
W  0.66666667  0.66666667  0.66666667
K_POINTS gamma
CELL_PARAMETERS angstrom
   4.728805134   4.728805134   4.728805134
   4.728805134  -4.728805134  -4.728805134
  -4.728805134   4.728805134  -4.728805134

